# Objective value = 2.8676279091783481e+03
x[0] 1
x[1] 1
x[2] 0
x[3] 0
x[4] 0
x[5] 1
x[6] 1
x[7] 1
x[8] 0
x[9] 0
x[10] 1
x[11] 0
x[12] 1
x[13] 0
x[14] 0
x[15] 1
x[16] 1
x[17] 1
x[18] 1
x[19] 0
x[20] 0
x[21] 1
x[22] 0
x[23] 0
x[24] 0
x[25] 1
x[26] 0
x[27] 0
x[28] 0
x[29] 0
x[30] 1
x[31] 0
x[32] 1
x[33] 0
x[34] 0
x[35] 0
x[36] 1
x[37] 1
x[38] 0
x[39] 0
x[40] 1
x[41] 1
x[42] 0
x[43] 0
x[44] 0
x[45] 0
x[46] 1
x[47] 1
x[48] 1
x[49] 1
x[50] 0
x[51] 0
x[52] 0
x[53] 1
x[54] 0
x[55] 1
x[56] 1
x[57] 0
x[58] 1
x[59] 1
x[60] 0
x[61] 0
x[62] 0
x[63] 0
x[64] 1
x[65] 1
x[66] 0
x[67] 1
x[68] 1
x[69] 1
x[70] 0
x[71] 0
x[72] 0
x[73] 1
x[74] 1
x[75] 0
x[76] 1
x[77] 0
x[78] 1
x[79] 1
x[80] 0
x[81] 1
x[82] 0
x[83] 0
x[84] 1
x[85] 0
x[86] 1
x[87] 1
x[88] 1
x[89] 0
x[90] 1
x[91] 1
x[92] 0
x[93] 1
x[94] 1
x[95] 1
x[96] 0
x[97] 1
x[98] 0
x[99] 1
x[100] 1
x[101] 0
x[102] 0
x[103] 0
x[104] 1
x[105] 1
x[106] 1
x[107] 0
x[108] 0
x[109] 1
x[110] 1
x[111] 0
x[112] 1
x[113] 1
x[114] 0
x[115] 0
x[116] 1
x[117] 0
x[118] 0
x[119] 1
x[120] 0
x[121] 1
x[122] 0
x[123] 1
x[124] 0
x[125] 0
x[126] 0
x[127] 0
x[128] 1
x[129] 0
x[130] 1
x[131] 1
x[132] 1
x[133] 1
x[134] 1
x[135] 1
x[136] 1
x[137] 0
x[138] 0
x[139] 1
x[140] 1
x[141] 1
x[142] 1
x[143] 0
x[144] 1
x[145] 0
x[146] 1
x[147] 1
x[148] 0
x[149] 1
x[150] 1
x[151] 1
x[152] 1
x[153] 1
x[154] 0
x[155] 0
x[156] 0
x[157] 0
x[158] 0
x[159] 1
x[160] 0
x[161] 0
x[162] 0
x[163] 1
x[164] 1
x[165] 0
x[166] 1
x[167] 0
x[168] 1
x[169] 0
x[170] 0
x[171] 1
x[172] 0
x[173] 0
x[174] 1
x[175] 1
x[176] 1
x[177] 0
x[178] 1
x[179] 1
x[180] 1
x[181] 0
x[182] 0
x[183] 1
x[184] 0
x[185] 1
x[186] 1
x[187] 1
x[188] 1
x[189] 1
x[190] 1
x[191] 0
x[192] 0
x[193] 1
x[194] 0
x[195] 1
x[196] 1
x[197] 0
x[198] 0
x[199] 1
x[200] 1
x[201] 0
x[202] 1
x[203] 0
x[204] 1
x[205] 0
x[206] 0
x[207] 0
x[208] 1
x[209] 1
x[210] 1
x[211] 1
x[212] 1
x[213] 0
x[214] 1
x[215] 0
x[216] 0
x[217] 0
x[218] 0
x[219] 0
x[220] 0
x[221] 1
x[222] 1
x[223] 1
x[224] 0
x[225] 0
x[226] 1
x[227] 1
x[228] 0
x[229] 1
x[230] 1
x[231] 0
x[232] 1
x[233] 0
x[234] 1
x[235] 0
x[236] 1
x[237] 1
x[238] 1
x[239] 1
x[240] 1
x[241] 0
x[242] 1
x[243] 0
x[244] 1
x[245] 0
x[246] 0
x[247] 0
x[248] 0
x[249] 1
x[250] 0
x[251] 0
x[252] 0
x[253] 1
x[254] 1
x[255] 1
x[256] 0
x[257] 0
x[258] 1
x[259] 1
x[260] 1
x[261] 1
x[262] 1
x[263] 0
x[264] 1
x[265] 1
x[266] 0
x[267] 0
x[268] 0
x[269] 1
x[270] 1
x[271] 0
x[272] 0
x[273] 1
x[274] 0
x[275] 1
x[276] 1
x[277] 0
x[278] 0
x[279] 1
x[280] 1
x[281] 0
x[282] 1
x[283] 0
x[284] 1
x[285] 0
x[286] 1
x[287] 1
x[288] 1
x[289] 1
x[290] 0
x[291] 1
x[292] 0
x[293] 0
x[294] 1
x[295] 1
x[296] 1
x[297] 0
x[298] 0
x[299] 0
x[300] 1
x[301] 1
x[302] 1
x[303] 0
x[304] 0
x[305] 1
x[306] 1
x[307] 0
x[308] 0
x[309] 1
x[310] 0
x[311] 0
x[312] 1
x[313] 0
x[314] 1
x[315] 1
x[316] 0
x[317] 1
x[318] 1
x[319] 1
x[320] 0
x[321] 1
x[322] 1
x[323] 0
x[324] 1
x[325] 0
x[326] 1
x[327] 1
x[328] 0
x[329] 0
x[330] 1
x[331] 0
x[332] 1
x[333] 1
x[334] 1
x[335] 0
x[336] 0
x[337] 1
x[338] 0
x[339] 0
x[340] 1
x[341] 0
x[342] 1
x[343] 1
x[344] 0
x[345] 0
x[346] 0
x[347] 0
x[348] 1
x[349] 0
x[350] 1
x[351] 0
x[352] 1
x[353] 1
x[354] 1
x[355] 0
x[356] 1
x[357] 1
x[358] 1
x[359] 0
x[360] 0
x[361] 0
x[362] 0
x[363] 1
x[364] 1
x[365] 1
x[366] 0
x[367] 1
x[368] 1
x[369] 0
x[370] 0
x[371] 0
x[372] 1
x[373] 1
x[374] 0
x[375] 1
x[376] 1
x[377] 1
x[378] 0
x[379] 0
x[380] 1
x[381] 1
x[382] 0
x[383] 0
x[384] 0
x[385] 1
x[386] 1
x[387] 1
x[388] 1
x[389] 1
x[390] 1
x[391] 1
x[392] 1
x[393] 0
x[394] 1
x[395] 0
x[396] 1
x[397] 1
x[398] 1
x[399] 1
x[400] 0
x[401] 1
x[402] 1
x[403] 0
x[404] 1
x[405] 1
x[406] 1
x[407] 1
x[408] 1
x[409] 1
x[410] 0
x[411] 0
x[412] 1
x[413] 0
x[414] 1
x[415] 1
x[416] 1
x[417] 1
x[418] 0
x[419] 1
x[420] 0
x[421] 1
x[422] 1
x[423] 1
x[424] 0
x[425] 1
x[426] 1
x[427] 1
x[428] 0
x[429] 1
x[430] 1
x[431] 1
x[432] 0
x[433] 0
x[434] 0
x[435] 1
x[436] 1
x[437] 1
x[438] 0
x[439] 1
x[440] 1
x[441] 0
x[442] 0
x[443] 1
x[444] 1
x[445] 0
x[446] 1
x[447] 0
x[448] 0
x[449] 0
x[450] 1
x[451] 0
x[452] 1
x[453] 0
x[454] 0
x[455] 1
x[456] 1
x[457] 1
x[458] 1
x[459] 0
x[460] 1
x[461] 1
x[462] 1
x[463] 1
x[464] 0
x[465] 1
x[466] 0
x[467] 1
x[468] 1
x[469] 1
x[470] 1
x[471] 1
x[472] 0
x[473] 0
x[474] 0
x[475] 1
x[476] 1
x[477] 0
x[478] 1
x[479] 0
x[480] 1
x[481] 0
x[482] 0
x[483] 1
x[484] 1
x[485] 1
x[486] 0
x[487] 0
x[488] 0
x[489] 0
x[490] 1
x[491] 0
x[492] 1
x[493] 1
x[494] 1
x[495] 0
x[496] 1
x[497] 1
x[498] 0
x[499] 1
x[500] 0
x[501] 1
x[502] 0
x[503] 0
x[504] 0
x[505] 1
x[506] 0
x[507] 0
x[508] 1
x[509] 1
x[510] 0
x[511] 0
x[512] 0
x[513] 1
x[514] 1
x[515] 1
x[516] 0
x[517] 0
x[518] 1
x[519] 1
x[520] 1
x[521] 0
x[522] 1
x[523] 1
x[524] 1
x[525] 1
x[526] 1
x[527] 0
x[528] 0
x[529] 0
x[530] 0
x[531] 1
x[532] 1
x[533] 0
x[534] 0
x[535] 1
x[536] 1
x[537] 0
x[538] 1
x[539] 1
x[540] 1
x[541] 0
x[542] 0
x[543] 1
x[544] 0
x[545] 1
x[546] 1
x[547] 0
x[548] 0
x[549] 0
x[550] 1
x[551] 0
x[552] 1
x[553] 0
x[554] 0
x[555] 1
x[556] 1
x[557] 1
x[558] 0
x[559] 1
x[560] 0
x[561] 0
x[562] 0
x[563] 0
x[564] 0
x[565] 0
x[566] 0
x[567] 0
x[568] 1
x[569] 0
x[570] 1
x[571] 1
x[572] 0
x[573] 0
x[574] 0
x[575] 0
x[576] 1
x[577] 0
x[578] 1
x[579] 0
x[580] 1
x[581] 1
x[582] 1
x[583] 1
x[584] 1
x[585] 0
x[586] 1
x[587] 0
x[588] 0
x[589] 1
x[590] 0
x[591] 0
x[592] 1
x[593] 0
x[594] 0
x[595] 1
x[596] 1
x[597] 1
x[598] 0
x[599] 0
x[600] 0
x[601] 0
x[602] 1
x[603] 1
x[604] 0
x[605] 0
x[606] 1
x[607] 0
x[608] 0
x[609] 1
x[610] 0
x[611] 1
x[612] 0
x[613] 0
x[614] 1
x[615] 1
x[616] 1
x[617] 1
x[618] 1
x[619] 0
x[620] 0
x[621] 0
x[622] 0
x[623] 1
x[624] 1
x[625] 1
x[626] 1
x[627] 1
x[628] 0
x[629] 0
x[630] 1
x[631] 1
x[632] 0
x[633] 0
x[634] 1
x[635] 1
x[636] 1
x[637] 1
x[638] 1
x[639] 1
x[640] 0
x[641] 0
x[642] 0
x[643] 0
x[644] 1
x[645] 1
x[646] 0
x[647] 0
x[648] 0
x[649] 0
x[650] 0
x[651] 1
x[652] 1
x[653] 1
x[654] 1
x[655] 0
x[656] 0
x[657] 1
x[658] 1
x[659] 0
x[660] 1
x[661] 0
x[662] 1
x[663] 1
x[664] 0
x[665] 0
x[666] 1
x[667] 1
x[668] 1
x[669] 0
x[670] 0
x[671] 0
x[672] 0
x[673] 0
x[674] 1
x[675] 1
x[676] 0
x[677] 1
x[678] 0
x[679] 1
x[680] 1
x[681] 1
x[682] 1
x[683] 1
x[684] 1
x[685] 1
x[686] 1
x[687] 0
x[688] 1
x[689] 0
x[690] 0
x[691] 1
x[692] 0
x[693] 1
x[694] 0
x[695] 0
x[696] 0
x[697] 1
x[698] 0
x[699] 1
x[700] 0
x[701] 1
x[702] 1
x[703] 1
x[704] 0
x[705] 0
x[706] 0
x[707] 1
x[708] 1
x[709] 1
x[710] 0
x[711] 1
x[712] 1
x[713] 1
x[714] 0
x[715] 1
x[716] 0
x[717] 0
x[718] 0
x[719] 1
x[720] 0
x[721] 1
x[722] 1
x[723] 0
x[724] 0
x[725] 1
x[726] 0
x[727] 1
x[728] 1
x[729] 1
x[730] 1
x[731] 1
x[732] 0
x[733] 0
x[734] 1
x[735] 1
x[736] 0
x[737] 1
x[738] 1
x[739] 1
x[740] 0
x[741] 1
x[742] 0
x[743] 1
x[744] 0
x[745] 0
x[746] 1
x[747] 1
x[748] 0
x[749] 1
x[750] 1
x[751] 1
x[752] 0
x[753] 0
x[754] 1
x[755] 1
x[756] 1
x[757] 1
x[758] 1
x[759] 1
x[760] 0
x[761] 0
x[762] 0
x[763] 0
x[764] 0
x[765] 0
x[766] 1
x[767] 0
x[768] 1
x[769] 0
x[770] 1
x[771] 1
x[772] 1
x[773] 0
x[774] 1
x[775] 1
x[776] 1
x[777] 1
x[778] 1
x[779] 0
x[780] 0
x[781] 0
x[782] 0
x[783] 0
x[784] 1
x[785] 1
x[786] 1
x[787] 0
x[788] 1
x[789] 1
x[790] 0
x[791] 0
x[792] 1
x[793] 1
x[794] 0
x[795] 1
x[796] 0
x[797] 1
x[798] 0
x[799] 1
x[800] 0
x[801] 1
x[802] 1
x[803] 1
x[804] 0
x[805] 0
x[806] 1
x[807] 0
x[808] 0
x[809] 0
x[810] 1
x[811] 0
x[812] 1
x[813] 0
x[814] 0
x[815] 0
x[816] 1
x[817] 1
x[818] 1
x[819] 1
x[820] 1
x[821] 1
x[822] 1
x[823] 0
x[824] 1
x[825] 1
x[826] 1
x[827] 0
x[828] 1
x[829] 0
x[830] 0
x[831] 1
x[832] 0
x[833] 1
x[834] 0
x[835] 0
x[836] 0
x[837] 1
x[838] 0
x[839] 0
x[840] 0
x[841] 0
x[842] 1
x[843] 0
x[844] 1
x[845] 1
x[846] 0
x[847] 1
x[848] 1
x[849] 0
x[850] 0
x[851] 1
x[852] 1
x[853] 0
x[854] 1
x[855] 1
x[856] 1
x[857] 0
x[858] 0
x[859] 1
x[860] 1
x[861] 1
x[862] 1
x[863] 0
x[864] 0
x[865] 0
x[866] 0
x[867] 0
x[868] 0
x[869] 0
x[870] 1
x[871] 1
x[872] 1
x[873] 0
x[874] 1
x[875] 0
x[876] 0
x[877] 1
x[878] 0
x[879] 0
x[880] 0
x[881] 1
x[882] 0
x[883] 0
x[884] 0
x[885] 0
x[886] 1
x[887] 0
x[888] 0
x[889] 1
x[890] 1
x[891] 0
x[892] 1
x[893] 1
x[894] 1
x[895] 1
x[896] 0
x[897] 1
x[898] 1
x[899] 1
x[900] 1
x[901] 1
x[902] 0
x[903] 0
x[904] 1
x[905] 1
x[906] 0
x[907] 0
x[908] 0
x[909] 0
x[910] 0
x[911] 1
x[912] 0
x[913] 0
x[914] 0
x[915] 0
x[916] 0
x[917] 0
x[918] 1
x[919] 0
x[920] 1
x[921] 0
x[922] 1
x[923] 1
x[924] 1
x[925] 0
x[926] 1
x[927] 1
x[928] 1
x[929] 0
x[930] 1
x[931] 0
x[932] 1
x[933] 0
x[934] 1
x[935] 0
x[936] 1
x[937] 1
x[938] 1
x[939] 1
x[940] 0
x[941] 1
x[942] 0
x[943] 1
x[944] 1
x[945] 1
x[946] 1
x[947] 1
x[948] 0
x[949] 0
x[950] 1
x[951] 1
x[952] 0
x[953] 0
x[954] 1
x[955] 1
x[956] 0
x[957] 0
x[958] 1
x[959] 0
x[960] 0
x[961] 0
x[962] 1
x[963] 0
x[964] 1
x[965] 1
x[966] 1
x[967] 0
x[968] 0
x[969] 1
x[970] 0
x[971] 1
x[972] 0
x[973] 1
x[974] 0
x[975] 0
x[976] 0
x[977] 1
x[978] 0
x[979] 0
x[980] 0
x[981] 0
x[982] 0
x[983] 1
x[984] 0
x[985] 1
x[986] 0
x[987] 1
x[988] 0
x[989] 0
x[990] 0
x[991] 1
x[992] 0
x[993] 1
x[994] 1
x[995] 1
x[996] 1
x[997] 1
x[998] 1
x[999] 0
x[1000] 1
x[1001] 1
x[1002] 0
x[1003] 1
x[1004] 0
x[1005] 1
x[1006] 1
x[1007] 0
x[1008] 0
x[1009] 1
x[1010] 1
x[1011] 1
x[1012] 1
x[1013] 1
x[1014] 0
x[1015] 0
x[1016] 1
x[1017] 1
x[1018] 1
x[1019] 1
x[1020] 0
x[1021] 1
x[1022] 1
x[1023] 0
x[1024] 0
x[1025] 1
x[1026] 0
x[1027] 0
x[1028] 0
x[1029] 1
x[1030] 0
x[1031] 0
x[1032] 0
x[1033] 1
x[1034] 1
x[1035] 0
x[1036] 0
x[1037] 0
x[1038] 0
x[1039] 1
x[1040] 0
x[1041] 0
x[1042] 0
x[1043] 1
x[1044] 1
x[1045] 0
x[1046] 1
x[1047] 1
x[1048] 1
x[1049] 1
x[1050] 1
x[1051] 0
x[1052] 0
x[1053] 1
x[1054] 1
x[1055] 1
x[1056] 1
x[1057] 1
x[1058] 1
x[1059] 0
x[1060] 0
x[1061] 1
x[1062] 1
x[1063] 0
x[1064] 0
x[1065] 0
x[1066] 0
x[1067] 0
x[1068] 0
x[1069] 1
x[1070] 1
x[1071] 1
x[1072] 1
x[1073] 1
x[1074] 1
x[1075] 1
x[1076] 1
x[1077] 1
x[1078] 0
x[1079] 1
x[1080] 1
x[1081] 0
x[1082] 1
x[1083] 0
x[1084] 1
x[1085] 1
x[1086] 1
x[1087] 1
x[1088] 0
x[1089] 1
x[1090] 1
x[1091] 1
x[1092] 1
x[1093] 1
x[1094] 1
x[1095] 0
x[1096] 1
x[1097] 1
x[1098] 0
x[1099] 1
x[1100] 0
x[1101] 1
x[1102] 1
x[1103] 0
x[1104] 0
x[1105] 1
x[1106] 0
x[1107] 0
x[1108] 1
x[1109] 0
x[1110] 0
x[1111] 1
x[1112] 0
x[1113] 1
x[1114] 1
x[1115] 0
x[1116] 1
x[1117] 1
x[1118] 1
x[1119] 0
x[1120] 1
x[1121] 1
x[1122] 0
x[1123] 1
x[1124] 0
x[1125] 1
x[1126] 0
x[1127] 1
x[1128] 1
x[1129] 1
x[1130] 0
x[1131] 0
x[1132] 1
x[1133] 0
x[1134] 0
x[1135] 0
x[1136] 0
x[1137] 0
x[1138] 1
x[1139] 1
x[1140] 0
x[1141] 0
x[1142] 1
x[1143] 0
x[1144] 1
x[1145] 0
x[1146] 0
x[1147] 0
x[1148] 1
x[1149] 1
x[1150] 1
x[1151] 1
x[1152] 0
x[1153] 0
x[1154] 1
x[1155] 1
x[1156] 1
x[1157] 1
x[1158] 1
x[1159] 0
x[1160] 0
x[1161] 0
x[1162] 1
x[1163] 0
x[1164] 0
x[1165] 0
x[1166] 0
x[1167] 0
x[1168] 0
x[1169] 1
x[1170] 0
x[1171] 1
x[1172] 1
x[1173] 1
x[1174] 0
x[1175] 0
x[1176] 1
x[1177] 0
x[1178] 0
x[1179] 0
x[1180] 1
x[1181] 1
x[1182] 1
x[1183] 0
x[1184] 1
x[1185] 1
x[1186] 0
x[1187] 1
x[1188] 0
x[1189] 0
x[1190] 1
x[1191] 1
x[1192] 0
x[1193] 1
x[1194] 0
x[1195] 1
x[1196] 0
x[1197] 0
x[1198] 1
x[1199] 0
x[1200] 1
x[1201] 1
x[1202] 1
x[1203] 1
x[1204] 1
x[1205] 1
x[1206] 1
x[1207] 1
x[1208] 1
x[1209] 0
x[1210] 1
x[1211] 0
x[1212] 0
x[1213] 1
x[1214] 1
x[1215] 1
x[1216] 1
x[1217] 0
x[1218] 1
x[1219] 0
x[1220] 0
x[1221] 0
x[1222] 0
x[1223] 0
x[1224] 1
x[1225] 1
x[1226] 0
x[1227] 1
x[1228] 1
x[1229] 0
x[1230] 0
x[1231] 1
x[1232] 0
x[1233] 1
x[1234] 1
x[1235] 0
x[1236] 0
x[1237] 0
x[1238] 1
x[1239] 0
x[1240] 1
x[1241] 1
x[1242] 1
x[1243] 0
x[1244] 1
x[1245] 1
x[1246] 1
x[1247] 0
x[1248] 0
x[1249] 1
x[1250] 0
x[1251] 1
x[1252] 0
x[1253] 0
x[1254] 0
x[1255] 1
x[1256] 0
x[1257] 1
x[1258] 0
x[1259] 0
x[1260] 1
x[1261] 0
x[1262] 0
x[1263] 1
x[1264] 1
x[1265] 0
x[1266] 1
x[1267] 1
x[1268] 0
x[1269] 1
x[1270] 1
x[1271] 0
x[1272] 0
x[1273] 1
x[1274] 1
x[1275] 1
x[1276] 0
x[1277] 0
x[1278] 0
x[1279] 1
x[1280] 1
x[1281] 1
x[1282] 0
x[1283] 1
x[1284] 0
x[1285] 0
x[1286] 1
x[1287] 1
x[1288] 1
x[1289] 1
x[1290] 1
x[1291] 1
x[1292] 1
x[1293] 1
x[1294] 1
x[1295] 1
x[1296] 1
x[1297] 0
x[1298] 0
x[1299] 0
x[1300] 0
x[1301] 1
x[1302] 1
x[1303] 0
x[1304] 1
x[1305] 0
x[1306] 0
x[1307] 1
x[1308] 1
x[1309] 1
x[1310] 1
x[1311] 0
x[1312] 1
x[1313] 0
x[1314] 0
x[1315] 1
x[1316] 0
x[1317] 1
x[1318] 1
x[1319] 1
x[1320] 0
x[1321] 0
x[1322] 1
x[1323] 0
x[1324] 0
x[1325] 0
x[1326] 1
x[1327] 1
x[1328] 0
x[1329] 0
x[1330] 1
x[1331] 1
x[1332] 0
x[1333] 0
x[1334] 0
x[1335] 0
x[1336] 0
x[1337] 0
x[1338] 1
x[1339] 0
x[1340] 1
x[1341] 0
x[1342] 0
x[1343] 1
x[1344] 0
x[1345] 1
x[1346] 1
x[1347] 0
x[1348] 1
x[1349] 0
x[1350] 0
x[1351] 0
x[1352] 0
x[1353] 1
x[1354] 0
x[1355] 1
x[1356] 1
x[1357] 1
x[1358] 0
x[1359] 1
x[1360] 0
x[1361] 0
x[1362] 0
x[1363] 0
x[1364] 1
x[1365] 0
x[1366] 0
x[1367] 1
x[1368] 0
x[1369] 0
x[1370] 1
x[1371] 1
x[1372] 0
x[1373] 1
x[1374] 0
x[1375] 0
x[1376] 1
x[1377] 1
x[1378] 1
x[1379] 1
x[1380] 0
x[1381] 1
x[1382] 1
x[1383] 1
x[1384] 1
x[1385] 0
x[1386] 1
x[1387] 1
x[1388] 0
x[1389] 1
x[1390] 1
x[1391] 0
x[1392] 0
x[1393] 0
x[1394] 0
x[1395] 0
x[1396] 0
x[1397] 1
x[1398] 1
x[1399] 0
x[1400] 1
x[1401] 0
x[1402] 1
x[1403] 1
x[1404] 1
x[1405] 1
x[1406] 0
x[1407] 0
x[1408] 0
x[1409] 1
x[1410] 1
x[1411] 0
x[1412] 1
x[1413] 1
x[1414] 0
x[1415] 0
x[1416] 0
x[1417] 1
x[1418] 1
x[1419] 1
x[1420] 0
x[1421] 1
x[1422] 0
x[1423] 1
x[1424] 1
x[1425] 0
x[1426] 0
x[1427] 0
x[1428] 0
x[1429] 1
x[1430] 0
x[1431] 1
x[1432] 1
x[1433] 1
x[1434] 0
x[1435] 1
x[1436] 1
x[1437] 1
x[1438] 0
x[1439] 1
x[1440] 0
x[1441] 1
x[1442] 1
x[1443] 0
x[1444] 0
x[1445] 1
x[1446] 1
x[1447] 0
x[1448] 1
x[1449] 1
x[1450] 1
x[1451] 0
x[1452] 1
x[1453] 1
x[1454] 1
x[1455] 0
x[1456] 1
x[1457] 1
x[1458] 1
x[1459] 0
x[1460] 0
x[1461] 1
x[1462] 1
x[1463] 1
x[1464] 0
x[1465] 0
x[1466] 0
x[1467] 0
x[1468] 1
x[1469] 0
x[1470] 1
x[1471] 0
x[1472] 0
x[1473] 1
x[1474] 0
x[1475] 1
x[1476] 0
x[1477] 1
x[1478] 0
x[1479] 0
x[1480] 1
x[1481] 1
x[1482] 0
x[1483] 1
x[1484] 1
x[1485] 0
x[1486] 1
x[1487] 1
x[1488] 1
x[1489] 1
x[1490] 1
x[1491] 0
x[1492] 1
x[1493] 1
x[1494] 1
x[1495] 1
x[1496] 1
x[1497] 1
x[1498] 0
x[1499] 0
x[1500] 0
x[1501] 1
x[1502] 1
x[1503] 0
x[1504] 1
x[1505] 0
x[1506] 1
x[1507] 1
x[1508] 0
x[1509] 1
x[1510] 1
x[1511] 0
x[1512] 0
x[1513] 0
x[1514] 0
x[1515] 0
x[1516] 1
x[1517] 1
x[1518] 1
x[1519] 1
x[1520] 0
x[1521] 0
x[1522] 0
x[1523] 1
x[1524] 1
x[1525] 1
x[1526] 1
x[1527] 1
x[1528] 0
x[1529] 1
x[1530] 1
x[1531] 1
x[1532] 0
x[1533] 1
x[1534] 1
x[1535] 0
x[1536] 1
x[1537] 0
x[1538] 0
x[1539] 1
x[1540] 0
x[1541] 1
x[1542] 1
x[1543] 1
x[1544] 1
x[1545] 0
x[1546] 1
x[1547] 1
x[1548] 1
x[1549] 0
x[1550] 0
x[1551] 0
x[1552] 1
x[1553] 1
x[1554] 0
x[1555] 0
x[1556] 1
x[1557] 1
x[1558] 0
x[1559] 0
x[1560] 0
x[1561] 0
x[1562] 0
x[1563] 0
x[1564] 1
x[1565] 0
x[1566] 0
x[1567] 1
x[1568] 0
x[1569] 0
x[1570] 0
x[1571] 1
x[1572] 1
x[1573] 1
x[1574] 1
x[1575] 0
x[1576] 0
x[1577] 0
x[1578] 0
x[1579] 1
x[1580] 0
x[1581] 0
x[1582] 0
x[1583] 0
x[1584] 0
x[1585] 0
x[1586] 1
x[1587] 1
x[1588] 1
x[1589] 0
x[1590] 1
x[1591] 1
x[1592] 0
x[1593] 0
x[1594] 0
x[1595] 1
x[1596] 0
x[1597] 0
x[1598] 0
x[1599] 0
x[1600] 0
x[1601] 0
x[1602] 1
x[1603] 0
x[1604] 1
x[1605] 1
x[1606] 1
x[1607] 1
x[1608] 0
x[1609] 1
x[1610] 0
x[1611] 0
x[1612] 1
x[1613] 1
x[1614] 0
x[1615] 1
x[1616] 1
x[1617] 1
x[1618] 1
x[1619] 0
x[1620] 0
x[1621] 1
x[1622] 0
x[1623] 0
x[1624] 0
x[1625] 1
x[1626] 1
x[1627] 1
x[1628] 0
x[1629] 0
x[1630] 1
x[1631] 1
x[1632] 0
x[1633] 0
x[1634] 1
x[1635] 0
x[1636] 0
x[1637] 1
x[1638] 0
x[1639] 1
x[1640] 1
x[1641] 0
x[1642] 1
x[1643] 0
x[1644] 1
x[1645] 1
x[1646] 1
x[1647] 0
x[1648] 1
x[1649] 0
x[1650] 0
x[1651] 1
x[1652] 1
x[1653] 1
x[1654] 1
x[1655] 0
x[1656] 0
x[1657] 0
x[1658] 1
x[1659] 0
x[1660] 1
x[1661] 0
x[1662] 0
x[1663] 0
x[1664] 1
x[1665] 0
x[1666] 1
x[1667] 1
x[1668] 0
x[1669] 1
x[1670] 1
x[1671] 1
x[1672] 0
x[1673] 1
x[1674] 0
x[1675] 1
x[1676] 1
x[1677] 1
x[1678] 1
x[1679] 0
x[1680] 0
x[1681] 1
x[1682] 1
x[1683] 1
x[1684] 1
x[1685] 1
x[1686] 1
x[1687] 1
x[1688] 1
x[1689] 1
x[1690] 0
x[1691] 0
x[1692] 1
x[1693] 0
x[1694] 0
x[1695] 0
x[1696] 1
x[1697] 0
x[1698] 0
x[1699] 0
x[1700] 1
x[1701] 0
x[1702] 1
x[1703] 1
x[1704] 0
x[1705] 1
x[1706] 0
x[1707] 0
x[1708] 0
x[1709] 0
x[1710] 1
x[1711] 1
x[1712] 1
x[1713] 1
x[1714] 0
x[1715] 1
x[1716] 1
x[1717] 1
x[1718] 0
x[1719] 0
x[1720] 0
x[1721] 1
x[1722] 1
x[1723] 0
x[1724] 1
x[1725] 1
x[1726] 0
x[1727] 1
x[1728] 1
x[1729] 1
x[1730] 1
x[1731] 0
x[1732] 0
x[1733] 1
x[1734] 1
x[1735] 0
x[1736] 1
x[1737] 0
x[1738] 0
x[1739] 1
x[1740] 1
x[1741] 0
x[1742] 1
x[1743] 1
x[1744] 1
x[1745] 1
x[1746] 0
x[1747] 0
x[1748] 1
x[1749] 0
x[1750] 1
x[1751] 0
x[1752] 1
x[1753] 1
x[1754] 0
x[1755] 0
x[1756] 0
x[1757] 1
x[1758] 1
x[1759] 0
x[1760] 1
x[1761] 1
x[1762] 1
x[1763] 0
x[1764] 1
x[1765] 0
x[1766] 1
x[1767] 0
x[1768] 0
x[1769] 0
x[1770] 0
x[1771] 0
x[1772] 0
x[1773] 0
x[1774] 0
x[1775] 1
x[1776] 1
x[1777] 1
x[1778] 0
x[1779] 0
x[1780] 1
x[1781] 0
x[1782] 1
x[1783] 0
x[1784] 1
x[1785] 1
x[1786] 1
x[1787] 1
x[1788] 0
x[1789] 0
x[1790] 1
x[1791] 0
x[1792] 1
x[1793] 0
x[1794] 0
x[1795] 0
x[1796] 1
x[1797] 1
x[1798] 1
x[1799] 0
x[1800] 1
x[1801] 0
x[1802] 1
x[1803] 0
x[1804] 0
x[1805] 1
x[1806] 1
x[1807] 0
x[1808] 1
x[1809] 1
x[1810] 1
x[1811] 0
x[1812] 1
x[1813] 0
x[1814] 0
x[1815] 0
x[1816] 1
x[1817] 1
x[1818] 1
x[1819] 0
x[1820] 1
x[1821] 0
x[1822] 1
x[1823] 0
x[1824] 1
x[1825] 1
x[1826] 1
x[1827] 0
x[1828] 0
x[1829] 0
x[1830] 0
x[1831] 1
x[1832] 1
x[1833] 0
x[1834] 1
x[1835] 1
x[1836] 1
x[1837] 0
x[1838] 1
x[1839] 0
x[1840] 1
x[1841] 1
x[1842] 1
x[1843] 1
x[1844] 1
x[1845] 1
x[1846] 0
x[1847] 1
x[1848] 0
x[1849] 0
x[1850] 1
x[1851] 0
x[1852] 0
x[1853] 0
x[1854] 0
x[1855] 1
x[1856] 0
x[1857] 0
x[1858] 0
x[1859] 1
x[1860] 0
x[1861] 1
x[1862] 0
x[1863] 0
x[1864] 1
x[1865] 0
x[1866] 1
x[1867] 0
x[1868] 0
x[1869] 0
x[1870] 1
x[1871] 1
x[1872] 0
x[1873] 1
x[1874] 1
x[1875] 0
x[1876] 0
x[1877] 1
x[1878] 0
x[1879] 1
x[1880] 1
x[1881] 0
x[1882] 1
x[1883] 1
x[1884] 0
x[1885] 0
x[1886] 0
x[1887] 0
x[1888] 0
x[1889] 1
x[1890] 0
x[1891] 1
x[1892] 0
x[1893] 1
x[1894] 0
x[1895] 1
x[1896] 1
x[1897] 0
x[1898] 0
x[1899] 0
x[1900] 1
x[1901] 1
x[1902] 1
x[1903] 0
x[1904] 1
x[1905] 1
x[1906] 1
x[1907] 0
x[1908] 0
x[1909] 0
x[1910] 1
x[1911] 1
x[1912] 1
x[1913] 0
x[1914] 0
x[1915] 0
x[1916] 0
x[1917] 0
x[1918] 0
x[1919] 1
x[1920] 1
x[1921] 0
x[1922] 0
x[1923] 0
x[1924] 0
x[1925] 0
x[1926] 1
x[1927] 1
x[1928] 1
x[1929] 0
x[1930] 0
x[1931] 0
x[1932] 1
x[1933] 1
x[1934] 0
x[1935] 0
x[1936] 0
x[1937] 0
x[1938] 1
x[1939] 0
x[1940] 1
x[1941] 0
x[1942] 1
x[1943] 0
x[1944] 0
x[1945] 0
x[1946] 0
x[1947] 1
x[1948] 1
x[1949] 1
x[1950] 1
x[1951] 1
x[1952] 1
x[1953] 0
x[1954] 1
x[1955] 0
x[1956] 0
x[1957] 0
x[1958] 1
x[1959] 1
x[1960] 1
x[1961] 0
x[1962] 1
x[1963] 0
x[1964] 0
x[1965] 0
x[1966] 0
x[1967] 1
x[1968] 1
x[1969] 1
x[1970] 0
x[1971] 1
x[1972] 1
x[1973] 0
x[1974] 1
x[1975] 1
x[1976] 1
x[1977] 1
x[1978] 0
x[1979] 0
x[1980] 1
x[1981] 0
x[1982] 1
x[1983] 0
x[1984] 1
x[1985] 1
x[1986] 0
x[1987] 1
x[1988] 0
x[1989] 1
x[1990] 1
x[1991] 0
x[1992] 1
x[1993] 1
x[1994] 1
x[1995] 1
x[1996] 0
x[1997] 1
x[1998] 0
x[1999] 1
